(set-info :smt-lib-version 2.6)
(set-logic UFDTNIA)
(set-info :source |
Generated by: Amar Shah
Generated on: 2024-12-11
Generator: Verus
Application: Verification of Rust Program
Target solver: z3
Time limit: 10
Benchmarks generated by the Rust verifier Verus (https://verus-lang.github.io/verus/guide/) on the project Verus Systems (https://dl.acm.org/doi/10.1145/3694715.3695952) and processed using Mariposa (https://github.com/secure-foundations/mariposa). z3 solves this without nonlinear, but it cannot be expressed in SMTLib without a nonlinear theory.
|)
(set-info :license "https://creativecommons.org/licenses/by/4.0/")
(set-info :category "industrial")
(set-info :status unsat)
(set-option :auto_config false)
(set-option :smt.mbqi false)
(set-option :smt.case_split 3)
(set-option :smt.qi.eager_threshold 100.0)
(set-option :smt.delay_units true)
(set-option :smt.arith.solver 2)
(set-option :smt.arith.nl false)
(set-option :pi.enabled false)
(set-option :rewriter.sort_disjunctions false)
(set-info :comment ";; Prelude")
(set-info :comment ";; AIR prelude")
(declare-sort %%Function%% 0)
(declare-sort FuelId 0)
(declare-sort Fuel 0)
(declare-const zero Fuel)
(declare-fun succ (Fuel) Fuel)
(declare-fun fuel_bool (FuelId) Bool)
(declare-fun fuel_bool_default (FuelId) Bool)
(declare-const fuel_defaults Bool)
(assert (=> fuel_defaults (forall ((id FuelId)) (! (= (fuel_bool id) (fuel_bool_default id)) :pattern ((fuel_bool id))))))
(declare-datatypes ((fndef 0)) (((fndef_singleton ))))
(declare-sort Poly 0)
(declare-sort Height 0)
(declare-fun I (Int) Poly)
(declare-fun B (Bool) Poly)
(declare-fun F (fndef) Poly)
(declare-fun %I (Poly) Int)
(declare-fun %B (Poly) Bool)
(declare-fun %F (Poly) fndef)
(declare-sort Type 0)
(declare-const BOOL Type)
(declare-const INT Type)
(declare-const NAT Type)
(declare-const CHAR Type)
(declare-fun UINT (Int) Type)
(declare-fun SINT (Int) Type)
(declare-fun CONST_INT (Int) Type)
(declare-sort Dcr 0)
(declare-const $ Dcr)
(declare-fun REF (Dcr) Dcr)
(declare-fun MUT_REF (Dcr) Dcr)
(declare-fun BOX (Dcr Type Dcr) Dcr)
(declare-fun RC (Dcr Type Dcr) Dcr)
(declare-fun ARC (Dcr Type Dcr) Dcr)
(declare-fun GHOST (Dcr) Dcr)
(declare-fun TRACKED (Dcr) Dcr)
(declare-fun NEVER (Dcr) Dcr)
(declare-fun CONST_PTR (Dcr) Dcr)
(declare-fun ARRAY (Dcr Type Dcr Type) Type)
(declare-fun SLICE (Dcr Type) Type)
(declare-const STRSLICE Type)
(declare-const ALLOCATOR_GLOBAL Type)
(declare-fun PTR (Dcr Type) Type)
(declare-fun has_type (Poly Type) Bool)
(declare-fun as_type (Poly Type) Poly)
(declare-fun mk_fun (%%Function%%) %%Function%%)
(declare-fun const_int (Type) Int)
(assert (forall ((i Int)) (! (= i (const_int (CONST_INT i))) :pattern ((CONST_INT i)))))
(assert (forall ((b Bool)) (! (has_type (B b) BOOL) :pattern ((has_type (B b) BOOL)))))
(assert (forall ((x Poly) (True Type)) (! (and (has_type (as_type x True) True) (=> (has_type x True) (= x (as_type x True)))) :pattern ((as_type x True)))))
(assert (forall ((x %%Function%%)) (! (= (mk_fun x) x) :pattern ((mk_fun x)))))
(assert (forall ((x Bool)) (! (= x (%B (B x))) :pattern ((B x)))))
(assert (forall ((x Int)) (! (= x (%I (I x))) :pattern ((I x)))))
(assert (forall ((x Poly)) (! (=> (has_type x BOOL) (= x (B (%B x)))) :pattern ((has_type x BOOL)))))
(assert (forall ((x Poly)) (! (=> (has_type x INT) (= x (I (%I x)))) :pattern ((has_type x INT)))))
(assert (forall ((x Poly)) (! (=> (has_type x NAT) (= x (I (%I x)))) :pattern ((has_type x NAT)))))
(assert (forall ((bits Int) (x Poly)) (! (=> (has_type x (UINT bits)) (= x (I (%I x)))) :pattern ((has_type x (UINT bits))))))
(assert (forall ((bits Int) (x Poly)) (! (=> (has_type x (SINT bits)) (= x (I (%I x)))) :pattern ((has_type x (SINT bits))))))
(assert (forall ((x Poly)) (! (=> (has_type x CHAR) (= x (I (%I x)))) :pattern ((has_type x CHAR)))))
(declare-fun ext_eq (Bool Type Poly Poly) Bool)
(assert (forall ((deep Bool) (True Type) (x Poly) (y Poly)) (! (= (= x y) (ext_eq deep True x y)) :pattern ((ext_eq deep True x y)))))
(declare-const SZ Int)
(assert (= SZ 64))
(declare-fun uHi (Int) Int)
(declare-fun iLo (Int) Int)
(declare-fun iHi (Int) Int)
(assert (= (uHi 8) 256))
(assert (= (uHi 16) 65536))
(assert (= (uHi 32) 4294967296))
(assert (= (uHi 64) 18446744073709551616))
(assert (= (uHi 128) (+ 1 340282366920938463463374607431768211455)))
(assert (= (iLo 8) (- 128)))
(assert (= (iLo 16) (- 32768)))
(assert (= (iLo 32) (- 2147483648)))
(assert (= (iLo 64) (- 9223372036854775808)))
(assert (= (iLo 128) (- 170141183460469231731687303715884105728)))
(assert (= (iHi 8) 128))
(assert (= (iHi 16) 32768))
(assert (= (iHi 32) 2147483648))
(assert (= (iHi 64) 9223372036854775808))
(assert (= (iHi 128) 170141183460469231731687303715884105728))
(declare-fun nClip (Int) Int)
(declare-fun uClip (Int Int) Int)
(declare-fun iClip (Int Int) Int)
(declare-fun charClip (Int) Int)
(assert (forall ((i Int)) (! (and (<= 0 (nClip i)) (=> (<= 0 i) (= i (nClip i)))) :pattern ((nClip i)))))
(assert (forall ((bits Int) (i Int)) (! (and (<= 0 (uClip bits i)) (< (uClip bits i) (uHi bits)) (=> (and (<= 0 i) (< i (uHi bits))) (= i (uClip bits i)))) :pattern ((uClip bits i)))))
(assert (forall ((bits Int) (i Int)) (! (and (<= (iLo bits) (iClip bits i)) (< (iClip bits i) (iHi bits)) (=> (and (<= (iLo bits) i) (< i (iHi bits))) (= i (iClip bits i)))) :pattern ((iClip bits i)))))
(assert (forall ((i Int)) (! (and (or (and (<= 0 (charClip i)) (<= (charClip i) 55295)) (and (<= 57344 (charClip i)) (<= (charClip i) 1114111))) (=> (or (and (<= 0 i) (<= i 55295)) (and (<= 57344 i) (<= i 1114111))) (= i (charClip i)))) :pattern ((charClip i)))))
(declare-fun uInv (Int Int) Bool)
(declare-fun iInv (Int Int) Bool)
(declare-fun charInv (Int) Bool)
(assert (forall ((bits Int) (i Int)) (! (= (uInv bits i) (and (<= 0 i) (< i (uHi bits)))) :pattern ((uInv bits i)))))
(assert (forall ((bits Int) (i Int)) (! (= (iInv bits i) (and (<= (iLo bits) i) (< i (iHi bits)))) :pattern ((iInv bits i)))))
(assert (forall ((i Int)) (! (= (charInv i) (or (and (<= 0 i) (<= i 55295)) (and (<= 57344 i) (<= i 1114111)))) :pattern ((charInv i)))))
(assert (forall ((x Int)) (! (has_type (I x) INT) :pattern ((has_type (I x) INT)))))
(assert (forall ((x Int)) (! (=> (<= 0 x) (has_type (I x) NAT)) :pattern ((has_type (I x) NAT)))))
(assert (forall ((bits Int) (x Int)) (! (=> (uInv bits x) (has_type (I x) (UINT bits))) :pattern ((has_type (I x) (UINT bits))))))
(assert (forall ((bits Int) (x Int)) (! (=> (iInv bits x) (has_type (I x) (SINT bits))) :pattern ((has_type (I x) (SINT bits))))))
(assert (forall ((x Int)) (! (=> (charInv x) (has_type (I x) CHAR)) :pattern ((has_type (I x) CHAR)))))
(assert (forall ((x Poly)) (! (=> (has_type x NAT) (<= 0 (%I x))) :pattern ((has_type x NAT)))))
(assert (forall ((bits Int) (x Poly)) (! (=> (has_type x (UINT bits)) (uInv bits (%I x))) :pattern ((has_type x (UINT bits))))))
(assert (forall ((bits Int) (x Poly)) (! (=> (has_type x (SINT bits)) (iInv bits (%I x))) :pattern ((has_type x (SINT bits))))))
(declare-fun Add (Int Int) Int)
(declare-fun Sub (Int Int) Int)
(declare-fun Mul (Int Int) Int)
(declare-fun EucDiv (Int Int) Int)
(declare-fun EucMod (Int Int) Int)
(assert (forall ((x Int) (y Int)) (! (= (Add x y) (+ x y)) :pattern ((Add x y)))))
(assert (forall ((x Int) (y Int)) (! (= (Sub x y) (- x y)) :pattern ((Sub x y)))))
(assert (forall ((x Int) (y Int)) (! (= (Mul x y) (* x y)) :pattern ((Mul x y)))))
(assert (forall ((x Int) (y Int)) (! (= (EucDiv x y) (div x y)) :pattern ((EucDiv x y)))))
(assert (forall ((x Int) (y Int)) (! (= (EucMod x y) (mod x y)) :pattern ((EucMod x y)))))
(assert (forall ((x Int) (y Int)) (! (=> (and (<= 0 x) (<= 0 y)) (<= 0 (Mul x y))) :pattern ((Mul x y)))))
(assert (forall ((x Int) (y Int)) (! (=> (and (<= 0 x) (< 0 y)) (and (<= 0 (EucDiv x y)) (<= (EucDiv x y) x))) :pattern ((EucDiv x y)))))
(assert (forall ((x Int) (y Int)) (! (=> (and (<= 0 x) (< 0 y)) (and (<= 0 (EucMod x y)) (< (EucMod x y) y))) :pattern ((EucMod x y)))))
(declare-fun bitxor (Poly Poly) Int)
(declare-fun bitand (Poly Poly) Int)
(declare-fun bitor (Poly Poly) Int)
(declare-fun bitshr (Poly Poly) Int)
(declare-fun bitshl (Poly Poly) Int)
(declare-fun bitnot (Poly) Int)
(assert (forall ((x Poly) (y Poly) (bits Int)) (! (=> (and (uInv bits (%I x)) (uInv bits (%I y))) (uInv bits (bitxor x y))) :pattern ((uClip bits (bitxor x y))))))
(assert (forall ((x Poly) (y Poly) (bits Int)) (! (=> (and (iInv bits (%I x)) (iInv bits (%I y))) (iInv bits (bitxor x y))) :pattern ((iClip bits (bitxor x y))))))
(assert (forall ((x Poly) (y Poly) (bits Int)) (! (=> (and (uInv bits (%I x)) (uInv bits (%I y))) (uInv bits (bitor x y))) :pattern ((uClip bits (bitor x y))))))
(assert (forall ((x Poly) (y Poly) (bits Int)) (! (=> (and (iInv bits (%I x)) (iInv bits (%I y))) (iInv bits (bitor x y))) :pattern ((iClip bits (bitor x y))))))
(assert (forall ((x Poly) (y Poly) (bits Int)) (! (=> (and (uInv bits (%I x)) (uInv bits (%I y))) (uInv bits (bitand x y))) :pattern ((uClip bits (bitand x y))))))
(assert (forall ((x Poly) (y Poly) (bits Int)) (! (=> (and (iInv bits (%I x)) (iInv bits (%I y))) (iInv bits (bitand x y))) :pattern ((iClip bits (bitand x y))))))
(assert (forall ((x Poly) (y Poly) (bits Int)) (! (=> (and (uInv bits (%I x)) (<= 0 (%I y))) (uInv bits (bitshr x y))) :pattern ((uClip bits (bitshr x y))))))
(assert (forall ((x Poly) (y Poly) (bits Int)) (! (=> (and (iInv bits (%I x)) (<= 0 (%I y))) (iInv bits (bitshr x y))) :pattern ((iClip bits (bitshr x y))))))
(declare-fun singular_mod (Int Int) Int)
(assert (forall ((x Int) (y Int)) (! (=> (not (= y 0)) (= (EucMod x y) (singular_mod x y))) :pattern ((singular_mod x y)))))
(declare-fun closure_req (Type Dcr Type Poly Poly) Bool)
(declare-fun closure_ens (Type Dcr Type Poly Poly Poly) Bool)
(declare-fun height (Poly) Height)
(declare-fun height_lt (Height Height) Bool)
(declare-fun fun_from_recursive_field (Poly) Poly)
(declare-fun check_decrease_int (Int Int Bool) Bool)
(assert (forall ((cur Int) (prev Int) (otherwise Bool)) (! (= (check_decrease_int cur prev otherwise) (or (and (<= 0 cur) (< cur prev)) (and (= cur prev) otherwise))) :pattern ((check_decrease_int cur prev otherwise)))))
(declare-fun check_decrease_height (Poly Poly Bool) Bool)
(assert (forall ((cur Poly) (prev Poly) (otherwise Bool)) (! (= (check_decrease_height cur prev otherwise) (or (height_lt (height cur) (height prev)) (and (= (height cur) (height prev)) otherwise))) :pattern ((check_decrease_height cur prev otherwise)))))
(declare-fun partial-order (Height Height) Bool)
(assert (forall ((x Height)) (partial-order x x)))
(assert (forall ((x Height) (y Height)) (=> (and (partial-order x y) (partial-order y x)) (= x y))))
(assert (forall ((x Height) (y Height) (z Height)) (=> (and (partial-order x y) (partial-order y z)) (partial-order x z))))
(assert (forall ((x Height) (y Height)) (! (= (height_lt x y) (and (partial-order x y) (not (= x y)))) :pattern ((height_lt x y)))))
(set-info :comment ";; MODULE 'module bin_sizes, function lib::bin_sizes::result_bin'")
(set-info :comment ";; Fuel")
(declare-const fuel%vstd!std_specs.bits.axiom_u64_leading_zeros. FuelId)
(declare-const fuel%lib!config.BIN_HUGE. FuelId)
(declare-const fuel%lib!bin_sizes.valid_bin_idx. FuelId)
(declare-const fuel%lib!bin_sizes.smallest_bin_fitting_size. FuelId)
(declare-const fuel%lib!bin_sizes.property_bin. FuelId)
(declare-const fuel%lib!bin_sizes.check_bin. FuelId)
(declare-const fuel%lib!bin_sizes.id. FuelId)
(declare-const fuel%vstd!array.group_array_axioms. FuelId)
(declare-const fuel%vstd!map.group_map_axioms. FuelId)
(declare-const fuel%vstd!multiset.group_multiset_axioms. FuelId)
(declare-const fuel%vstd!raw_ptr.group_raw_ptr_axioms. FuelId)
(declare-const fuel%vstd!seq.group_seq_axioms. FuelId)
(declare-const fuel%vstd!seq_lib.group_seq_lib_default. FuelId)
(declare-const fuel%vstd!set.group_set_axioms. FuelId)
(declare-const fuel%vstd!set_lib.group_set_lib_axioms. FuelId)
(declare-const fuel%vstd!slice.group_slice_axioms. FuelId)
(declare-const fuel%vstd!string.group_string_axioms. FuelId)
(declare-const fuel%vstd!std_specs.bits.group_bits_axioms. FuelId)
(declare-const fuel%vstd!std_specs.control_flow.group_control_flow_axioms. FuelId)
(declare-const fuel%vstd!std_specs.range.group_range_axioms. FuelId)
(declare-const fuel%vstd!std_specs.vec.group_vec_axioms. FuelId)
(declare-const fuel%vstd!group_vstd_default. FuelId)
(assert (distinct fuel%vstd!std_specs.bits.axiom_u64_leading_zeros. fuel%lib!config.BIN_HUGE. fuel%lib!bin_sizes.valid_bin_idx. fuel%lib!bin_sizes.smallest_bin_fitting_size. fuel%lib!bin_sizes.property_bin. fuel%lib!bin_sizes.check_bin. fuel%lib!bin_sizes.id. fuel%vstd!array.group_array_axioms. fuel%vstd!map.group_map_axioms. fuel%vstd!multiset.group_multiset_axioms. fuel%vstd!raw_ptr.group_raw_ptr_axioms. fuel%vstd!seq.group_seq_axioms. fuel%vstd!seq_lib.group_seq_lib_default. fuel%vstd!set.group_set_axioms. fuel%vstd!set_lib.group_set_lib_axioms. fuel%vstd!slice.group_slice_axioms. fuel%vstd!string.group_string_axioms. fuel%vstd!std_specs.bits.group_bits_axioms. fuel%vstd!std_specs.control_flow.group_control_flow_axioms. fuel%vstd!std_specs.range.group_range_axioms. fuel%vstd!std_specs.vec.group_vec_axioms. fuel%vstd!group_vstd_default.))
(assert (=> (fuel_bool_default fuel%vstd!std_specs.bits.group_bits_axioms.) (fuel_bool_default fuel%vstd!std_specs.bits.axiom_u64_leading_zeros.)))
(assert (fuel_bool_default fuel%vstd!group_vstd_default.))
(assert (=> (fuel_bool_default fuel%vstd!group_vstd_default.) (and (fuel_bool_default fuel%vstd!seq.group_seq_axioms.) (fuel_bool_default fuel%vstd!seq_lib.group_seq_lib_default.) (fuel_bool_default fuel%vstd!map.group_map_axioms.) (fuel_bool_default fuel%vstd!set.group_set_axioms.) (fuel_bool_default fuel%vstd!set_lib.group_set_lib_axioms.) (fuel_bool_default fuel%vstd!std_specs.bits.group_bits_axioms.) (fuel_bool_default fuel%vstd!std_specs.control_flow.group_control_flow_axioms.) (fuel_bool_default fuel%vstd!std_specs.vec.group_vec_axioms.) (fuel_bool_default fuel%vstd!slice.group_slice_axioms.) (fuel_bool_default fuel%vstd!array.group_array_axioms.) (fuel_bool_default fuel%vstd!multiset.group_multiset_axioms.) (fuel_bool_default fuel%vstd!string.group_string_axioms.) (fuel_bool_default fuel%vstd!std_specs.range.group_range_axioms.) (fuel_bool_default fuel%vstd!raw_ptr.group_raw_ptr_axioms.))))
(set-info :comment ";; Datatypes")
(declare-datatypes ((tuple%0. 0)) (((tuple%0./tuple%0 ))))
(declare-const TYPE%tuple%0. Type)
(declare-fun Poly%tuple%0. (tuple%0.) Poly)
(declare-fun %Poly%tuple%0. (Poly) tuple%0.)
(assert (forall ((x tuple%0.)) (! (= x (%Poly%tuple%0. (Poly%tuple%0. x))) :pattern ((Poly%tuple%0. x)))))
(assert (forall ((x Poly)) (! (=> (has_type x TYPE%tuple%0.) (= x (Poly%tuple%0. (%Poly%tuple%0. x)))) :pattern ((has_type x TYPE%tuple%0.)))))
(assert (forall ((x tuple%0.)) (! (has_type (Poly%tuple%0. x) TYPE%tuple%0.) :pattern ((has_type (Poly%tuple%0. x) TYPE%tuple%0.)))))
(set-info :comment ";; Function-Decl vstd::std_specs::bits::u64_leading_zeros")
(declare-fun vstd!std_specs.bits.u64_leading_zeros.? (Poly) Int)
(set-info :comment ";; Function-Decl lib::config::BIN_HUGE")
(declare-fun lib!config.BIN_HUGE.? () Int)
(set-info :comment ";; Function-Decl lib::bin_sizes::valid_bin_idx")
(declare-fun lib!bin_sizes.valid_bin_idx.? (Poly) Bool)
(set-info :comment ";; Function-Decl lib::bin_sizes::size_of_bin")
(declare-fun lib!bin_sizes.size_of_bin.? (Poly) Int)
(set-info :comment ";; Function-Decl lib::bin_sizes::smallest_bin_fitting_size")
(declare-fun lib!bin_sizes.smallest_bin_fitting_size.? (Poly) Int)
(set-info :comment ";; Function-Decl lib::bin_sizes::property_bin")
(declare-fun lib!bin_sizes.property_bin.? (Poly) Bool)
(set-info :comment ";; Function-Decl lib::bin_sizes::check_bin")
(declare-fun lib!bin_sizes.check_bin.? (Poly Poly) Bool)
(declare-fun lib!bin_sizes.rec%check_bin.? (Poly Poly Fuel) Bool)
(set-info :comment ";; Function-Decl lib::bin_sizes::id")
(declare-fun lib!bin_sizes.id.? (Poly) Bool)
(set-info :comment ";; Broadcast vstd::std_specs::bits::axiom_u64_leading_zeros")
(assert (=> (fuel_bool fuel%vstd!std_specs.bits.axiom_u64_leading_zeros.) (forall ((i! Poly)) (! (=> (has_type i! (UINT 64)) (and (and (and (and (let ((tmp%%$ (vstd!std_specs.bits.u64_leading_zeros.? i!))) (and (<= 0 tmp%%$) (<= tmp%%$ 64))) (= (= (%I i!) 0) (= (vstd!std_specs.bits.u64_leading_zeros.? i!) 64))) (=> (let ((tmp%%$ (vstd!std_specs.bits.u64_leading_zeros.? i!))) (and (<= 0 tmp%%$) (< tmp%%$ 64))) (not (= (uClip 64 (bitand (I (uClip 64 (bitshr (I (%I i!)) (I (uClip 64 (Sub 63 (uClip 64 (vstd!std_specs.bits.u64_leading_zeros.? i!)))))))) (I 1))) 0)))) (= (uClip 64 (bitshr (I (%I i!)) (I (uClip 64 (Sub 64 (uClip 64 (vstd!std_specs.bits.u64_leading_zeros.? i!))))))) 0)) (forall ((j$ Poly)) (! (=> (has_type j$ (UINT 64)) (=> (and (<= (Sub 64 (vstd!std_specs.bits.u64_leading_zeros.? i!)) (%I j$)) (< (%I j$) 64)) (= (uClip 64 (bitand (I (uClip 64 (bitshr (I (%I i!)) (I (%I j$))))) (I 1))) 0))) :pattern ((uClip 64 (bitshr (I (%I i!)) (I (%I j$))))))))) :pattern ((vstd!std_specs.bits.u64_leading_zeros.? i!))))))
(set-info :comment ";; Function-Axioms lib::config::BIN_HUGE")
(assert (fuel_bool_default fuel%lib!config.BIN_HUGE.))
(assert (=> (fuel_bool fuel%lib!config.BIN_HUGE.) (= lib!config.BIN_HUGE.? 73)))
(assert (uInv 64 lib!config.BIN_HUGE.?))
(set-info :comment ";; Function-Axioms lib::bin_sizes::valid_bin_idx")
(assert (fuel_bool_default fuel%lib!bin_sizes.valid_bin_idx.))
(assert (=> (fuel_bool fuel%lib!bin_sizes.valid_bin_idx.) (forall ((bin_idx! Poly)) (! (= (lib!bin_sizes.valid_bin_idx.? bin_idx!) (and (<= 1 (%I bin_idx!)) (<= (%I bin_idx!) lib!config.BIN_HUGE.?))) :pattern ((lib!bin_sizes.valid_bin_idx.? bin_idx!))))))
(set-info :comment ";; Function-Specs lib::bin_sizes::size_of_bin")
(declare-fun req%lib!bin_sizes.size_of_bin. (Poly) Bool)
(declare-const %%global_location_label%%0 Bool)
(assert (forall ((bin_idx! Poly)) (! (= (req%lib!bin_sizes.size_of_bin. bin_idx!) (=> %%global_location_label%%0 (lib!bin_sizes.valid_bin_idx.? bin_idx!))) :pattern ((req%lib!bin_sizes.size_of_bin. bin_idx!)))))
(set-info :comment ";; Function-Axioms lib::bin_sizes::size_of_bin")
(assert (forall ((bin_idx! Poly)) (! (=> (has_type bin_idx! INT) (<= 0 (lib!bin_sizes.size_of_bin.? bin_idx!))) :pattern ((lib!bin_sizes.size_of_bin.? bin_idx!)))))
(set-info :comment ";; Function-Axioms lib::bin_sizes::smallest_bin_fitting_size")
(assert (fuel_bool_default fuel%lib!bin_sizes.smallest_bin_fitting_size.))
(assert (=> (fuel_bool fuel%lib!bin_sizes.smallest_bin_fitting_size.) (forall ((size! Poly)) (! (= (lib!bin_sizes.smallest_bin_fitting_size.? size!) (let ((bytes_per_word$ (uClip 32 (EucDiv SZ 8)))) (let ((wsize$ (EucDiv (Sub (Add (%I size!) bytes_per_word$) 1) bytes_per_word$))) (ite (<= wsize$ 1) 1 (ite (<= wsize$ 8) wsize$ (ite (> wsize$ 524288) lib!config.BIN_HUGE.? (let ((w$ (uClip 64 (Sub wsize$ 1)))) (let ((lz$ (vstd!std_specs.bits.u64_leading_zeros.? (I w$)))) (let ((b$ (uClip 8 (Sub (Sub SZ 1) lz$)))) (let ((shifted$ (uClip 8 (uClip 64 (bitshr (I w$) (I (uClip 64 (Sub b$ 2)))))))) (let ((bin_idx$ (Sub (Add (Mul b$ 4) (uClip 8 (bitand (I shifted$) (I 3)))) 3))) bin_idx$))))))))))) :pattern ((lib!bin_sizes.smallest_bin_fitting_size.? size!))))))
(set-info :comment ";; Function-Axioms lib::bin_sizes::property_bin")
(assert (fuel_bool_default fuel%lib!bin_sizes.property_bin.))
(assert (=> (fuel_bool fuel%lib!bin_sizes.property_bin.) (forall ((size! Poly)) (! (= (lib!bin_sizes.property_bin.? size!) (let ((tmp%%$ (lib!bin_sizes.size_of_bin.? (I (lib!bin_sizes.smallest_bin_fitting_size.? size!))))) (and (>= 131072 tmp%%$) (>= tmp%%$ (%I size!))))) :pattern ((lib!bin_sizes.property_bin.? size!))))))
(set-info :comment ";; Function-Axioms lib::bin_sizes::check_bin")
(assert (fuel_bool_default fuel%lib!bin_sizes.check_bin.))
(declare-const fuel_nat%lib!bin_sizes.check_bin. Fuel)
(assert (forall ((size_start! Poly) (size_end! Poly) (fuel% Fuel)) (! (= (lib!bin_sizes.rec%check_bin.? size_start! size_end! fuel%) (lib!bin_sizes.rec%check_bin.? size_start! size_end! zero)) :pattern ((lib!bin_sizes.rec%check_bin.? size_start! size_end! fuel%)))))
(assert (forall ((size_start! Poly) (size_end! Poly) (fuel% Fuel)) (! (=> (and (has_type size_start! INT) (has_type size_end! INT)) (= (lib!bin_sizes.rec%check_bin.? size_start! size_end! (succ fuel%)) (=> (not (>= (%I size_start!) (%I size_end!))) (and (lib!bin_sizes.property_bin.? size_start!) (lib!bin_sizes.rec%check_bin.? (I (Add (%I size_start!) 8)) size_end! fuel%))))) :pattern ((lib!bin_sizes.rec%check_bin.? size_start! size_end! (succ fuel%))))))
(assert (=> (fuel_bool fuel%lib!bin_sizes.check_bin.) (forall ((size_start! Poly) (size_end! Poly)) (! (=> (and (has_type size_start! INT) (has_type size_end! INT)) (= (lib!bin_sizes.check_bin.? size_start! size_end!) (lib!bin_sizes.rec%check_bin.? size_start! size_end! (succ fuel_nat%lib!bin_sizes.check_bin.)))) :pattern ((lib!bin_sizes.check_bin.? size_start! size_end!))))))
(set-info :comment ";; Function-Axioms lib::bin_sizes::id")
(assert (fuel_bool_default fuel%lib!bin_sizes.id.))
(assert (=> (fuel_bool fuel%lib!bin_sizes.id.) (forall ((i! Poly)) (! (= (lib!bin_sizes.id.? i!) true) :pattern ((lib!bin_sizes.id.? i!))))))
(set-info :comment ";; Function-Specs lib::bin_sizes::result_bin")
(declare-fun req%lib!bin_sizes.result_bin. (Int Int) Bool)
(declare-const %%global_location_label%%1 Bool)
(assert (forall ((size_start! Int) (size_end! Int)) (! (= (req%lib!bin_sizes.result_bin. size_start! size_end!) (=> %%global_location_label%%1 (= (EucMod size_start! 8) 0))) :pattern ((req%lib!bin_sizes.result_bin. size_start! size_end!)))))
(declare-fun ens%lib!bin_sizes.result_bin. (Int Int) Bool)
(assert (forall ((size_start! Int) (size_end! Int)) (! (= (ens%lib!bin_sizes.result_bin. size_start! size_end!) (=> (lib!bin_sizes.check_bin.? (I size_start!) (I size_end!)) (forall ((size$ Poly)) (! (=> (has_type size$ INT) (=> (and (and (<= size_start! (%I size$)) (< (%I size$) size_end!)) (= (EucMod (%I size$) 8) 0)) (and (lib!bin_sizes.id.? size$) (lib!bin_sizes.property_bin.? size$)))) :pattern ((lib!bin_sizes.id.? size$)))))) :pattern ((ens%lib!bin_sizes.result_bin. size_start! size_end!)))))
(set-info :comment ";; Function-Def lib::bin_sizes::result_bin")
(set-info :comment ";; bin_sizes.rs:969:7: 969:50 (#0)")
(declare-const size_start! Int)
(declare-const size_end! Int)
(declare-const tmp%1 Int)
(declare-const size@ Poly)
(declare-const tmp%2 Bool)
(declare-const decrease%init0 Int)
(assert (forall ((id FuelId)) (! (or (= (fuel_bool id) (fuel_bool_default id)) (= id fuel%lib!bin_sizes.property_bin.)) :pattern ((fuel_bool id)))))
(assert (= (EucMod size_start! 8) 0))
(declare-const %%switch_label%%0 Bool)
(declare-const %%switch_label%%1 Bool)
(set-info :comment ";; could not prove termination")
(declare-const %%location_label%%0 Bool)
(set-info :comment ";; precondition not satisfied")
(declare-const %%location_label%%1 Bool)
(set-info :comment ";; assertion failed")
(declare-const %%location_label%%2 Bool)
(set-info :comment ";; assertion failed")
(declare-const %%location_label%%3 Bool)
(set-info :comment ";; postcondition not satisfied")
(declare-const %%location_label%%4 Bool)
(assert (not (=> (= decrease%init0 (Add (Sub size_end! size_start!) 8)) (or (and (=> (>= size_start! size_end!) %%switch_label%%0) (=> (not (>= size_start! size_end!)) (=> (= tmp%1 (Add size_start! 8)) (and (=> %%location_label%%0 (check_decrease_int (let ((size_start!$0 tmp%1) (size_end!$1 size_end!)) (Add (Sub size_end!$1 size_start!$0) 8)) decrease%init0 false)) (and (=> %%location_label%%1 (req%lib!bin_sizes.result_bin. tmp%1 size_end!)) (=> (ens%lib!bin_sizes.result_bin. tmp%1 size_end!) (or (and (=> (lib!bin_sizes.check_bin.? (I size_start!) (I size_end!)) (and (=> (has_type size@ INT) (=> (and (and (<= size_start! (%I size@)) (< (%I size@) size_end!)) (= (EucMod (%I size@) 8) 0)) (=> (= tmp%2 (lib!bin_sizes.id.? size@)) (and (=> %%location_label%%2 tmp%2) (=> tmp%2 (=> %%location_label%%3 (and (lib!bin_sizes.id.? size@) (lib!bin_sizes.property_bin.? size@)))))))) (=> (forall ((size$ Poly)) (! (=> (has_type size$ INT) (=> (and (and (<= size_start! (%I size$)) (< (%I size$) size_end!)) (= (EucMod (%I size$) 8) 0)) (and (lib!bin_sizes.id.? size$) (lib!bin_sizes.property_bin.? size$)))) :pattern ((lib!bin_sizes.id.? size$)) :pattern ((lib!bin_sizes.property_bin.? size$)))) %%switch_label%%1))) (=> (not (lib!bin_sizes.check_bin.? (I size_start!) (I size_end!))) %%switch_label%%1)) (and (not %%switch_label%%1) %%switch_label%%0)))))))) (and (not %%switch_label%%0) (=> %%location_label%%4 (=> (lib!bin_sizes.check_bin.? (I size_start!) (I size_end!)) (forall ((size$ Poly)) (! (=> (has_type size$ INT) (=> (and (and (<= size_start! (%I size$)) (< (%I size$) size_end!)) (= (EucMod (%I size$) 8) 0)) (and (lib!bin_sizes.id.? size$) (lib!bin_sizes.property_bin.? size$)))) :pattern ((lib!bin_sizes.id.? size$)))))))))))
(check-sat)
(exit)
